Name: EasyAcademy11
Courses: 72
Rooms: 14
Days: 5
Periods_per_day: 6
Curricula: 27
Min_Max_Daily_Lectures: 2 5
UnavailabilityConstraints: 537
RoomConstraints: 167

COURSES:
c1136 t63 2 2 13 0
c1714 t23 2 2 24 0
c1715 t19 2 2 70 0
c1716 t28 2 2 40 0
c1717 t65 2 2 75 0
c1718 t11 2 2 5 0
c1720 t10 1 1 90 0
c1721 t19 2 2 20 0
c1722 t57 2 2 10 0
c1723 t20 2 2 8 0
c1724 t43 2 2 23 0
c1725 t38 2 2 55 0
c1726 t18 2 2 6 0
c1727 t9 2 2 3 0
c1728 t19 2 2 10 0
c1729 t22 2 2 25 0
c1730 t9 2 2 20 0
c1731 t57 2 2 10 0
c1732 t20 2 2 8 0
c1733 t30 2 2 2 0
c1734 t54 2 2 3 0
c1736 t10 2 2 10 0
c1738 t26 2 2 10 0
c1739 t52 2 2 42 0
c1741 t64 2 2 32 0
c1742 t65 2 2 40 0
c1744 t344 2 2 10 0
c1746 t11 2 2 7 0
c1747 t37 2 2 50 0
c1748 t42 2 2 25 0
c1749 t15 2 2 45 0
c1750 t18 2 2 26 0
c1751 t57 2 2 75 0
c1752 t24 2 2 145 0
c1753 t26 2 2 45 0
c1754 t65 2 2 46 0
c1755 t21 2 2 23 0
c1757 t33 2 2 14 0
c1758 t11 2 2 3 0
c1759 t89 2 2 25 0
c1760 t90 2 2 30 0
c1761 t89 2 2 25 0
c1762 t42 2 2 70 0
c1766 t44 2 2 65 0
c1767 t88 2 2 58 0
c1768 t47 2 2 35 0
c1769 t45 2 2 35 0
c1770 t18 2 2 3 0
c1771 t13 2 2 150 0
c1772 t54 2 2 3 0
c1773 t75 2 2 165 0
c1774 t7 2 2 150 0
c1779 t38 2 2 80 0
c1781 t37 2 2 130 0
c1782 t56 2 2 150 0
c1783 t5 2 2 130 0
c1784 t29 2 2 30 0
c1785 t44 2 2 25 0
c1786 t47 2 2 30 0
c1787 t45 2 2 30 0
c1790 t14 2 2 130 0
c1908 t56 2 2 35 0
c1924 t14 2 2 65 0
c1954 t56 2 2 10 0
c1958 t31 2 2 14 0
c1960 t71 2 2 95 0
c1983 t31 2 2 7 0
c3003 t27 1 1 55 0
c3004 t27 1 1 40 0
c3005 t40 1 1 50 0
c3833 t7 2 2 100 0
c9250 t21 1 1 7 0

ROOMS:
r21 42 0
r22 25 0
r23 53 0
r24 175 0
r25 86 0
r26 46 0
r217 15 0
r222 30 3
r263 60 6
r35 14 4
r31 45 2
r218 25 5
r38 265 7
r37 100 7

CURRICULA:
cu420 9 c1714 c1715 c1716 c1717 c1720 c1136 c1718 c1773 c3005
cu421A 7 c1717 c1773 c1136 c1718 c1720 c1958 c3005
cu421B 7 c1717 c1773 c1718 c1720 c1750 c1958 c3005
cu424 9 c1741 c1742 c1739 c1744 c1746 c1747 c1748 c1750 c1954
cu456 11 c1721 c1722 c1723 c1729 c1730 c1742 c1724 c1726 c1741 c1750 c1908
cu457 12 c1727 c1728 c1729 c1730 c1731 c1732 c1733 c1734 c1736 c1738 c1744 c1746
cu458 3 c1725 c1924 c1726
cu477 12 c1767 c1771 c1773 c1774 c1766 c1768 c1769 c1770 c1772 c1983 c3003 c3833
cu478 12 c1773 c1782 c1783 c1784 c1767 c1770 c1772 c1785 c1786 c1787 c1983 c3003
cu545A1 12 c1754 c1773 c1960 c1749 c1750 c1753 c1755 c1757 c1758 c1759 c1760 c1761 
cu545A2 12 c1754 c1773 c1960 c1136 c1749 c1753 c1755 c1757 c1758 c1759 c1760 c1761 
cu545A3 12 c1751 c1752 c1960 c1749 c1750 c1753 c1755 c1757 c1758 c1759 c1760 c1761 
cu545A4 12 c1751 c1752 c1960 c1136 c1749 c1753 c1755 c1757 c1758 c1759 c1760 c1761 
cu545B1 11 c1754 c1773 c1960 c1750 c1753 c1755 c1757 c1758 c1759 c3004 c9250
cu545B2 11 c1754 c1773 c1960 c1136 c1753 c1755 c1757 c1758 c1759 c3004 c9250
cu545B3 11 c1751 c1752 c1960 c1750 c1753 c1755 c1757 c1758 c1759 c3004 c9250
cu545B4 11 c1751 c1752 c1960 c1136 c1753 c1755 c1757 c1758 c1759 c3004 c9250
cu545B5 11 c1754 c1773 c1960 c1750 c1753 c1755 c1757 c1758 c1759 c1958 c3004
cu545B6 11 c1754 c1773 c1960 c1136 c1753 c1755 c1757 c1758 c1759 c1958 c3004
cu545B7 11 c1751 c1752 c1960 c1750 c1753 c1755 c1757 c1758 c1759 c1958 c3004
cu545B8 11 c1751 c1752 c1960 c1136 c1753 c1755 c1757 c1758 c1759 c1958 c3004
cu545C1 12 c1754 c1773 c1749 c1750 c1753 c1755 c1760 c1761 c1762 c1958 c3004 c9250
cu545C2 12 c1754 c1773 c1136 c1749 c1753 c1755 c1760 c1761 c1762 c1958 c3004 c9250
cu545C3 12 c1751 c1752 c1136 c1749 c1753 c1755 c1760 c1761 c1762 c1958 c3004 c9250
cu545C4 12 c1751 c1752 c1749 c1753 c1750 c1755 c1760 c1761 c1762 c1958 c3004 c9250
cu546A 10 c1751 c1752 c1773 c1779 c1781 c1790 c1136 c1758 c1958 c3004
cu546B 10 c1751 c1752 c1773 c1779 c1781 c1790 c1750 c1758 c1958 c3004

UNAVAILABILITY_CONSTRAINTS:
c1136 1 0
c1136 2 0
c1136 3 0
c1136 4 0
c1136 4 1
c1136 4 2
c1714 1 0
c1714 1 2
c1714 2 0
c1714 2 2
c1714 3 0
c1714 3 2
c1714 4 0
c1714 4 2
c1715 0 5
c1715 1 0
c1715 1 2
c1715 1 5
c1715 2 0
c1715 2 2
c1715 2 5
c1715 3 0
c1715 3 2
c1715 4 0
c1715 4 2
c1716 0 3
c1716 0 4
c1716 0 5
c1716 1 0
c1716 1 1
c1716 1 2
c1716 4 0
c1716 4 1
c1716 4 2
c1717 2 3
c1717 2 4
c1717 2 5
c1717 3 0
c1717 3 1
c1717 3 2
c1717 4 0
c1717 4 1
c1717 4 2
c1718 1 5
c1718 2 0
c1718 2 1
c1718 2 2
c1718 2 3
c1718 2 4
c1718 2 5
c1718 3 0
c1718 3 1
c1718 3 2
c1720 0 5
c1720 1 0
c1720 1 1
c1720 1 5
c1720 2 0
c1720 2 1
c1720 2 5
c1720 3 0
c1720 3 1
c1720 4 0
c1720 4 1
c1721 0 5
c1721 1 0
c1721 1 2
c1721 1 5
c1721 2 0
c1721 2 2
c1721 2 5
c1721 3 0
c1721 3 2
c1721 4 0
c1721 4 2
c1722 1 0
c1722 1 1
c1722 2 0
c1722 2 1
c1722 3 0
c1722 3 1
c1722 3 2
c1722 4 0
c1722 4 1
c1722 4 2
c1723 1 0
c1723 1 1
c1723 1 2
c1723 2 0
c1723 2 1
c1723 2 2
c1723 3 0
c1723 3 1
c1723 3 2
c1723 4 0
c1723 4 2
c1724 0 3
c1724 0 4
c1724 0 5
c1724 1 3
c1724 1 4
c1724 1 5
c1724 2 0
c1724 2 1
c1724 2 2
c1725 0 4
c1725 0 5
c1725 1 0
c1725 1 4
c1725 1 5
c1725 2 0
c1725 2 4
c1725 2 5
c1725 3 0
c1725 4 0
c1726 0 3
c1726 0 4
c1726 0 5
c1726 1 0
c1726 1 5
c1726 2 0
c1726 2 5
c1726 3 0
c1726 4 0
c1726 4 1
c1726 4 2
c1728 0 5
c1728 1 0
c1728 1 2
c1728 1 5
c1728 2 0
c1728 2 2
c1728 2 5
c1728 3 0
c1728 3 2
c1728 4 0
c1728 4 2
c1729 0 3
c1729 0 4
c1729 0 5
c1729 4 0
c1729 4 1
c1729 4 2
c1731 1 0
c1731 1 1
c1731 2 0
c1731 2 1
c1731 3 0
c1731 3 1
c1731 3 2
c1731 4 0
c1731 4 1
c1731 4 2
c1732 1 0
c1732 1 1
c1732 1 2
c1732 2 0
c1732 2 1
c1732 2 2
c1732 3 0
c1732 3 1
c1732 3 2
c1732 4 0
c1732 4 2
c1734 2 2
c1734 2 3
c1734 2 4
c1734 2 5
c1734 3 0
c1734 3 1
c1734 3 2
c1734 4 0
c1734 4 1
c1734 4 2
c1736 0 5
c1736 1 0
c1736 1 1
c1736 1 5
c1736 2 0
c1736 2 1
c1736 2 5
c1736 3 0
c1736 3 1
c1736 4 0
c1736 4 1
c1738 0 3
c1738 0 4
c1738 0 5
c1738 1 0
c1738 2 0
c1738 3 0
c1738 3 1
c1738 3 2
c1738 4 0
c1738 4 1
c1738 4 2
c1741 0 3
c1741 0 4
c1741 0 5
c1741 1 2
c1741 1 3
c1741 1 4
c1741 1 5
c1741 2 2
c1741 2 3
c1741 2 4
c1741 2 5
c1742 2 3
c1742 2 4
c1742 2 5
c1742 3 0
c1742 3 1
c1742 3 2
c1742 4 0
c1742 4 1
c1742 4 2
c1746 1 5
c1746 2 0
c1746 2 1
c1746 2 2
c1746 2 3
c1746 2 4
c1746 2 5
c1746 3 0
c1746 3 1
c1746 3 2
c1747 0 5
c1747 1 0
c1747 1 5
c1747 2 0
c1747 2 5
c1747 3 0
c1747 3 1
c1747 3 2
c1747 4 0
c1747 4 1
c1747 4 2
c1748 0 3
c1748 1 0
c1748 1 1
c1748 1 3
c1748 2 0
c1748 2 3
c1748 2 4
c1748 2 5
c1748 4 0
c1748 4 1
c1748 4 2
c1749 0 3
c1749 1 2
c1749 1 3
c1749 2 2
c1749 2 3
c1749 3 2
c1749 4 0
c1749 4 1
c1749 4 2
c1750 0 3
c1750 0 4
c1750 0 5
c1750 1 0
c1750 1 5
c1750 2 0
c1750 2 5
c1750 3 0
c1750 4 0
c1750 4 1
c1750 4 2
c1751 1 0
c1751 1 1
c1751 2 0
c1751 2 1
c1751 3 0
c1751 3 1
c1751 3 2
c1751 4 0
c1751 4 1
c1751 4 2
c1752 0 5
c1752 1 0
c1752 1 1
c1752 2 0
c1752 2 1
c1752 3 0
c1752 3 1
c1752 3 2
c1752 4 0
c1752 4 1
c1752 4 2
c1753 0 3
c1753 0 4
c1753 0 5
c1753 1 0
c1753 2 0
c1753 3 0
c1753 3 1
c1753 3 2
c1753 4 0
c1753 4 1
c1753 4 2
c1754 2 3
c1754 2 4
c1754 2 5
c1754 3 0
c1754 3 1
c1754 3 2
c1754 4 0
c1754 4 1
c1754 4 2
c1755 0 3
c1755 0 4
c1755 0 5
c1755 1 0
c1755 2 5
c1755 3 0
c1755 3 1
c1755 3 2
c1755 4 0
c1755 4 1
c1755 4 2
c1757 1 2
c1757 2 2
c1757 3 2
c1757 4 2
c1758 1 5
c1758 2 0
c1758 2 1
c1758 2 2
c1758 2 3
c1758 2 4
c1758 2 5
c1758 3 0
c1758 3 1
c1758 3 2
c1759 1 2
c1759 2 0
c1759 2 1
c1759 2 2
c1759 2 3
c1759 2 4
c1759 2 5
c1759 3 2
c1759 4 2
c1760 1 0
c1760 2 0
c1760 3 0
c1760 4 0
c1761 1 2
c1761 2 0
c1761 2 1
c1761 2 2
c1761 2 3
c1761 2 4
c1761 2 5
c1761 3 2
c1761 4 2
c1762 0 3
c1762 1 0
c1762 1 1
c1762 1 3
c1762 2 0
c1762 2 3
c1762 2 4
c1762 2 5
c1762 4 0
c1762 4 1
c1762 4 2
c1766 1 0
c1766 1 2
c1766 2 0
c1766 2 1
c1766 2 2
c1766 3 0
c1766 3 2
c1766 4 0
c1766 4 2
c1767 0 5
c1767 1 0
c1767 1 1
c1767 2 0
c1767 2 1
c1767 3 0
c1767 3 1
c1767 4 0
c1767 4 1
c1768 2 5
c1770 0 3
c1770 0 4
c1770 0 5
c1770 1 0
c1770 1 5
c1770 2 0
c1770 2 5
c1770 3 0
c1770 4 0
c1770 4 1
c1770 4 2
c1771 1 0
c1771 1 2
c1771 2 0
c1771 2 2
c1771 2 3
c1771 2 4
c1771 3 0
c1771 3 1
c1771 3 2
c1771 4 0
c1771 4 2
c1772 2 2
c1772 2 3
c1772 2 4
c1772 2 5
c1772 3 0
c1772 3 1
c1772 3 2
c1772 4 0
c1772 4 1
c1772 4 2
c1773 0 5
c1773 1 0
c1773 1 5
c1773 2 0
c1773 2 5
c1773 3 0
c1774 3 0
c1774 3 1
c1774 3 2
c1774 4 0
c1774 4 1
c1774 4 2
c1779 0 4
c1779 0 5
c1779 1 0
c1779 1 4
c1779 1 5
c1779 2 0
c1779 2 4
c1779 2 5
c1779 3 0
c1779 4 0
c1781 0 5
c1781 1 0
c1781 1 5
c1781 2 0
c1781 2 5
c1781 3 0
c1781 3 1
c1781 3 2
c1781 4 0
c1781 4 1
c1781 4 2
c1782 0 3
c1782 0 4
c1782 0 5
c1782 1 0
c1782 1 1
c1782 1 2
c1782 4 0
c1782 4 1
c1782 4 2
c1783 0 3
c1783 0 4
c1783 0 5
c1783 1 0
c1783 1 1
c1783 1 2
c1783 1 3
c1783 1 4
c1783 1 5
c1783 2 0
c1783 2 1
c1784 0 3
c1784 0 4
c1784 1 0
c1784 1 1
c1784 1 2
c1784 3 0
c1784 3 1
c1784 3 2
c1784 4 0
c1784 4 1
c1784 4 2
c1785 1 0
c1785 1 2
c1785 2 0
c1785 2 1
c1785 2 2
c1785 3 0
c1785 3 2
c1785 4 0
c1785 4 2
c1786 2 5
c1908 0 3
c1908 0 4
c1908 0 5
c1908 1 0
c1908 1 1
c1908 1 2
c1908 4 0
c1908 4 1
c1908 4 2
c1954 0 3
c1954 0 4
c1954 0 5
c1954 1 0
c1954 1 1
c1954 1 2
c1954 4 0
c1954 4 1
c1954 4 2
c1960 0 5
c1960 1 0
c1960 1 1
c1960 1 2
c1960 1 5
c1960 2 1
c1960 2 2
c1960 2 5
c1960 4 0
c1960 4 1
c3833 3 0
c3833 3 1
c3833 3 2
c3833 4 0
c3833 4 1
c3833 4 2
c9250 0 3
c9250 0 4
c9250 0 5
c9250 1 0
c9250 2 5
c9250 3 0
c9250 3 1
c9250 3 2
c9250 4 0
c9250 4 1
c9250 4 2

ROOM_CONSTRAINTS:
c1715 r31
c1717 r22
c1717 r31
c1717 r35
c1717 r38
c1717 r37
c1720 r21
c1720 r22
c1720 r23
c1720 r26
c1720 r31
c1720 r35
c1720 r37
c1721 r31
c1721 r35
c1722 r35
c1722 r31
c1722 r38
c1722 r37
c1723 r31
c1723 r35
c1723 r38
c1723 r37
c1726 r21
c1726 r22
c1726 r23
c1726 r24
c1726 r25
c1726 r26
c1726 r31
c1726 r38
c1726 r37
c1728 r31
c1728 r35
c1731 r31
c1731 r38
c1731 r37
c1732 r31
c1732 r35
c1732 r38
c1732 r37
c1734 r31
c1734 r35
c1734 r38
c1734 r37
c1738 r31
c1738 r38
c1738 r37
c1741 r31
c1741 r35
c1742 r31
c1742 r35
c1742 r38
c1742 r37
c1747 r25
c1747 r31
c1747 r35
c1748 r23
c1748 r24
c1748 r25
c1748 r26
c1748 r31
c1748 r35
c1750 r21
c1750 r22
c1750 r23
c1750 r24
c1750 r25
c1750 r26
c1750 r31
c1750 r38
c1750 r37
c1751 r31
c1751 r38
c1751 r37
c1753 r31
c1753 r38
c1753 r37
c1754 r22
c1754 r35
c1754 r31
c1754 r38
c1754 r37
c1755 r23
c1755 r24
c1755 r25
c1755 r31
c1755 r35
c1755 r38
c1755 r37
c1759 r31
c1759 r35
c1761 r31
c1761 r35
c1762 r21
c1762 r22
c1762 r23
c1762 r26
c1762 r31
c1762 r35
c1767 r31
c1768 r31
c1768 r35
c1768 r38
c1768 r37
c1770 r21
c1770 r22
c1770 r23
c1770 r24
c1770 r25
c1770 r26
c1770 r31
c1770 r38
c1770 r37
c1772 r31
c1772 r35
c1772 r38
c1772 r37
c1773 r21
c1773 r22
c1773 r23
c1773 r26
c1773 r31
c1773 r35
c1774 r21
c1774 r22
c1774 r23
c1774 r35
c1774 r31
c1779 r21
c1779 r22
c1779 r23
c1779 r26
c1779 r31
c1779 r35
c1781 r22
c1781 r23
c1781 r26
c1781 r31
c1781 r35
c1782 r31
c1782 r35
c1782 r37
c1783 r21
c1783 r22
c1783 r35
c1784 r22
c1784 r31
c1784 r35
c1786 r31
c1786 r35
c1786 r38
c1786 r37
c1908 r22
c1908 r31
c1908 r35
c1908 r38
c1908 r37
c1954 r31
c1954 r35
c1954 r38
c1954 r37
c1960 r21
c1960 r22
c1960 r23
c1960 r26
c1960 r31

END.
